% File represents an instance of a Composite Structure problem to be solved by a CP framework
% Created on 2025-03-26 10:41:17.127
T = 54;
n = 9;
m = 12;
edges = [(2, 1),
(5, 4),
(8, 7),
(3, 2),
(6, 5),
(9, 8),
(1, 4),
(7, 4),
(2, 5),
(8, 5),
(3, 6),
(9, 6)];
counts = [|16, 2, 16, 10,
|18, 2, 18, 10,
|18, 2, 18, 14,
|16, 2, 16, 8,
|18, 2, 18, 8,
|18, 2, 18, 12,
|18, 2, 18, 10,
|20, 2, 20, 10,
|20, 2, 20, 12|];
